000 000 000 000 000 000 000 000 -99 -99 -99 -99 000 000 000 001 002 002 004 006 004 007 006 014 018 031 048 042 069 062 023
000 000 000 000 000 000 000 000 000 -99 -99 -99 -99 000 000 000 001 002 003 006 009 008 010 009 036 026 035 052 069 100 034
000 000 000 000 000 000 000 000 000 000 -99 -99 -99 -99 000 000 001 002 002 005 017 009 010 024 045 042 064 081 100 172 107
000 000 000 000 000 000 000 000 000 000 000 000 000 000 000 000 000 001 002 006 011 010 023 017 061 061 131 152 152 140 283
000 000 000 000 000 000 000 000 000 000 000 000 000 000 000 000 000 000 002 004 007 016 020 021 031 068 109 137 146 172 282
000 000 000 000 000 000 000 000 000 000 000 000 000 000 000 000 000 000 000 002 005 010 012 014 022 052 078 090 149 199 377
000 000 000 000 000 000 000 000 000 000 000 000 000 000 000 000 000 000 000 001 003 007 013 013 017 029 048 065 069 172 320
000 000 000 000 000 000 000 000 000 000 000 000 000 000 001 000 000 000 000 000 001 003 007 006 010 011 012 020 060 134 249
000 000 000 000 000 000 000 001 000 000 000 001 001 002 001 000 000 000 000 000 000 001 003 005 005 005 003 006 023 096 137
000 000 000 000 000 000 000 000 000 000 001 001 002 003 002 001 001 000 000 000 000 001 000 003 003 004 004 007 011 033 092
000 000 000 000 001 001 000 000 000 001 001 002 004 004 003 003 002 001 000 000 001 001 001 006 007 005 005 010 016 035 068
000 000 000 000 001 001 001 001 000 001 002 003 005 005 004 006 003 001 000 000 001 002 004 006 007 005 007 017 024 031 043
000 000 000 000 001 001 002 003 001 002 003 003 003 004 003 006 005 004 002 001 002 002 004 006 009 006 006 018 013 011 039
000 000 000 001 002 003 006 007 003 009 009 004 003 003 007 009 008 010 006 003 003 002 004 004 006 005 002 005 004 009 035
000 000 000 001 003 005 018 026 010 018 026 008 002 001 006 013 014 018 014 030 012 006 004 005 003 002 002 003 003 009 066
000 000 001 003 006 011 031 044 027 052 050 033 004 003 006 019 029 026 015 031 022 007 008 007 003 001 002 005 010 017 100
000 000 003 021 021 027 039 046 039 087 092 100 022 013 025 042 042 041 035 034 026 021 017 008 006 001 002 011 019 023 068
000 000 000 010 014 018 031 064 078 146 211 172 052 046 080 094 075 064 054 025 022 028 021 014 011 002 003 023 040 050 092
000 000 000 004 010 019 021 026 066 123 230 152 046 064 129 134 129 083 058 041 041 033 021 015 011 003 002 031 045 068 098
000 000 000 002 009 016 012 032 087 129 179 109 075 094 175 183 187 048 066 081 066 030 037 018 010 012 005 033 064 080 072
000 000 000 001 005 010 006 019 094 100 111 102 118 109 179 179 066 044 085 064 050 029 034 016 007 012 007 005 050 082 058
000 000 000 001 002 005 005 016 071 073 066 080 114 098 091 089 029 021 066 075 019 017 024 034 015 012 007 004 031 048 031
000 000 000 000 001 003 004 015 039 073 062 069 077 085 057 057 030 019 056 083 033 020 022 028 013 010 006 004 021 024 017
000 000 000 000 001 001 003 010 016 046 047 061 034 061 041 020 018 010 025 069 041 019 013 017 011 009 005 -99 015 012 009
000 000 000 000 000 000 001 002 015 046 026 033 006 028 031 009 008 004 008 028 020 012 008 011 008 009 006 -99 -99 007 004
000 000 000 000 000 000 000 000 003 003 009 015 002 013 014 006 005 002 003 008 006 005 008 011 006 009 -99 -99 -99 005 004
000 000 -99 000 000 000 000 000 000 000 002 010 000 004 005 002 001 001 001 002 001 001 003 004 -99 -99 -99 004 005 004 004
000 000 -99 000 000 000 000 000 000 000 001 000 000 001 001 000 000 000 000 000 000 001 001 001 001 -99 003 005 005 003 003
000 000 -99 000 000 000 000 000 000 000 000 000 000 000 000 000 000 000 000 000 000 000 -99 000 000 -99 003 005 005 003 001
000 000 -99 000 000 000 000 000 000 000 000 000 000 000 000 000 000 000 000 000 000 000 -99 000 000 000 002 005 -99 003 000
000 000 000 000 000 000 000 000 000 000 -99 -99 000 000 000 000 000 000 000 000 000 000 -99 000 000 000 000 -99 -99 -99 -99
000 000 000 000 000 000 -99 000 000 -99 -99 -99 -99 -99 000 000 000 000 000 -99 000 000 -99 -99 000 000 000 -99 -99 -99 -99
000 000 000 000 000 000 000 000 000 000 -99 -99 -99 000 000 000 000 000 000 -99 -99 000 -99 -99 000 000 -99 -99 -99 -99 -99
000 000 000 000 000 000 000 000 000 000 -99 -99 -99 000 000 000 000 000 000 -99 -99 000 -99 -99 000 000 000 000 000 000 000
-99 000 000 000 000 000 000 000 000 000 -99 -99 -99 000 000 000 000 000 -99 000 000 -99 -99 000 000 000 000 000 000 000 000
000 000 000 000 000 000 000 000 000 -99 -99 -99 000 000 000 000 000 000 000 000 000 -99 -99 000 000 000 000 000 000 000 -99
000 000 -99 000 000 000 000 000 000 -99 -99 -99 000 000 000 000 000 000 000 000 000 -99 000 000 000 000 000 000 000 -99 -99
000 -99 -99 000 000 000 -99 000 000 -99 -99 -99 000 000 000 000 000 000 000 000 000 -99 000 000 000 000 000 000 000 -99 -99
000 -99 -99 -99 000 000 -99 -99 -99 -99 -99 -99 -99 000 -99 000 000 000 -99 000 000 -99 000 000 000 000 000 000 -99 -99 -99
000 000 -99 000 000 -99 -99 -99 -99 -99 -99 000 000 -99 000 000 000 000 000 000 000 -99 000 000 000 000 000 -99 -99 -99 -99
000 000 000 000 000 -99 -99 -99 -99 -99 000 000 000 000 -99 000 000 -99 000 000 000 -99 000 000 -99 -99 000 -99 -99 -99 -99
000 000 -99 -99 -99 -99 -99 -99 -99 000 000 000 000 000 -99 -99 -99 000 000 000 000 000 000 -99 000 000 -99 -99 -99 -99 -99
000 000 -99 -99 -99 -99 -99 -99 -99 000 000 000 000 -99 -99 -99 000 000 000 000 000 000 -99 -99 000 000 -99 -99 -99 -99 -99
000 -99 -99 -99 -99 -99 -99 -99 -99 -99 000 000 000 000 000 000 -99 000 000 -99 000 000 -99 -99 000 000 -99 -99 -99 -99 -99
-99 -99 -99 -99 -99 -99 -99 -99 -99 -99 000 000 000 -99 000 000 -99 -99 000 -99 -99 -99 -99 000 000 -99 -99 -99 -99 -99 -99
-99 -99 -99 -99 -99 -99 -99 -99 -99 -99 -99 000 000 -99 000 -99 -99 000 000 -99 -99 -99 -99 -99 000 -99 -99 -99 -99 -99 -99
-99 -99 -99 -99 -99 -99 -99 -99 -99 -99 -99 000 000 -99 000 -99 -99 -99 000 000 -99 -99 -99 -99 -99 -99 -99 -99 -99 -99 -99
-99 -99 -99 -99 -99 -99 -99 -99 -99 -99 -99 -99 -99 000 -99 -99 -99 000 -99 -99 -99 -99 -99 -99 -99 -99 -99 -99 -99 -99 -99
-99 -99 -99 -99 -99 -99 -99 -99 -99 -99 -99 -99 000 -99 -99 -99 -99 -99 -99 -99 -99 000 -99 -99 -99 -99 -99 -99 -99 -99 -99
-99 -99 -99 -99 -99 -99 -99 -99 -99 -99 -99 000 000 -99 -99 -99 -99 -99 -99 -99 -99 000 -99 -99 -99 -99 -99 -99 -99 -99 -99
-99 -99 -99 -99 -99 -99 -99 -99 -99 -99 -99 -99 000 -99 -99 -99 -99 000 -99 -99 000 -99 -99 -99 -99 000 -99 -99 -99 -99 -99
-99 -99 -99 -99 -99 -99 -99 -99 -99 -99 -99 -99 -99 -99 -99 -99 000 000 -99 000 -99 -99 -99 -99 -99 000 -99 -99 -99 -99 -99
-99 -99 -99 -99 -99 -99 -99 -99 -99 -99 -99 -99 -99 -99 -99 -99 000 000 000 000 -99 -99 -99 -99 -99 -99 -99 -99 -99 -99 -99
-99 -99 -99 -99 -99 -99 -99 -99 -99 -99 -99 -99 -99 -99 -99 000 000 000 000 -99 -99 -99 -99 -99 -99 -99 -99 -99 -99 -99 -99
-99 -99 -99 -99 -99 -99 -99 -99 -99 -99 -99 -99 -99 -99 -99 000 000 -99 -99 -99 -99 -99 -99 -99 -99 -99 -99 -99 -99 -99 -99
